(set-logic QF_UF)
(declare-fun A0 () Bool)
(declare-fun A1 () Bool)
(declare-fun A2 () Bool)
(declare-fun A3 () Bool)
(declare-fun A4 () Bool)
(declare-fun A5 () Bool)
(declare-fun A6 () Bool)
(declare-fun A7 () Bool)
(declare-fun A8 () Bool)
(declare-fun A9 () Bool)
(declare-fun A10 () Bool)
(declare-fun A11 () Bool)
(declare-fun A12 () Bool)
(declare-fun A13 () Bool)
(declare-fun A14 () Bool)
(declare-fun A15 () Bool)
(declare-fun A16 () Bool)
(declare-fun A19 () Bool)
(declare-fun A20 () Bool)
(declare-fun A21 () Bool)
(declare-fun A22 () Bool)
(declare-fun A23 () Bool)
(declare-fun A24 () Bool)
(assert (let ((.def_0 (not A12))) (let ((.def_1 (not A9))) (let ((.def_2 (and .def_1 .def_0))) (let ((.def_3 (not .def_2))) (let ((.def_4 (not A14))) (let ((.def_5 (not A16))) (let ((.def_6 (or .def_5 .def_4))) (let ((.def_7 (and .def_6 .def_3))) (let ((.def_8 (not A0))) (let ((.def_9 (not A19))) (let ((.def_10 (and .def_9 .def_8))) (let ((.def_11 (not A2))) (let ((.def_12 (or .def_11 A24))) (let ((.def_13 (or .def_12 .def_10))) (let ((.def_14 (or .def_13 .def_7))) (let ((.def_15 (not .def_14))) (let ((.def_16 (or A1 A8))) (let ((.def_17 (not .def_16))) (let ((.def_18 (or A20 A14))) (let ((.def_19 (= .def_18 .def_17))) (let ((.def_20 (not .def_19))) (let ((.def_21 (not A3))) (let ((.def_22 (and .def_21 .def_9))) (let ((.def_23 (and A22 .def_8))) (let ((.def_24 (not .def_23))) (let ((.def_25 (or .def_24 .def_22))) (let ((.def_26 (not .def_25))) (let ((.def_27 (and .def_26 .def_20))) (let ((.def_28 (= .def_27 .def_15))) (let ((.def_29 (not A4))) (let ((.def_30 (or .def_29 A7))) (let ((.def_31 (not .def_30))) (let ((.def_32 (or A3 A4))) (let ((.def_33 (or .def_32 .def_31))) (let ((.def_34 (= A2 A24))) (let ((.def_35 (not .def_34))) (let ((.def_36 (not A7))) (let ((.def_37 (and .def_4 .def_36))) (let ((.def_38 (or .def_37 .def_35))) (let ((.def_39 (and .def_38 .def_33))) (let ((.def_40 (and .def_29 A10))) (let ((.def_41 (or A5 A12))) (let ((.def_42 (not .def_41))) (let ((.def_43 (and .def_42 .def_40))) (let ((.def_44 (and A19 A0))) (let ((.def_45 (not .def_44))) (let ((.def_46 (not A23))) (let ((.def_47 (or .def_46 A1))) (let ((.def_48 (not .def_47))) (let ((.def_49 (or .def_48 .def_45))) (let ((.def_50 (and .def_49 .def_43))) (let ((.def_51 (or .def_50 .def_39))) (let ((.def_52 (and .def_51 .def_28))) (let ((.def_53 (and A6 A23))) (let ((.def_54 (not .def_53))) (let ((.def_55 (not A24))) (let ((.def_56 (and .def_55 A21))) (let ((.def_57 (not .def_56))) (let ((.def_58 (and .def_57 .def_54))) (let ((.def_59 (not .def_58))) (let ((.def_60 (and A15 .def_29))) (let ((.def_61 (and A3 A16))) (let ((.def_62 (or .def_61 .def_60))) (let ((.def_63 (not .def_62))) (let ((.def_64 (and .def_63 .def_59))) (let ((.def_65 (not A5))) (let ((.def_66 (and .def_65 A2))) (let ((.def_67 (and .def_21 .def_8))) (let ((.def_68 (or .def_67 .def_66))) (let ((.def_69 (not A10))) (let ((.def_70 (or .def_0 .def_69))) (let ((.def_71 (not .def_70))) (let ((.def_72 (and A5 A13))) (let ((.def_73 (not .def_72))) (let ((.def_74 (or .def_73 .def_71))) (let ((.def_75 (not .def_74))) (let ((.def_76 (and .def_75 .def_68))) (let ((.def_77 (or .def_76 .def_64))) (let ((.def_78 (and A4 .def_21))) (let ((.def_79 (not .def_78))) (let ((.def_80 (not A15))) (let ((.def_81 (not A1))) (let ((.def_82 (or .def_81 .def_80))) (let ((.def_83 (and .def_82 .def_79))) (let ((.def_84 (not A6))) (let ((.def_85 (and .def_84 A2))) (let ((.def_86 (not A11))) (let ((.def_87 (and .def_86 A1))) (let ((.def_88 (or .def_87 .def_85))) (let ((.def_89 (or .def_88 .def_83))) (let ((.def_90 (or .def_46 A8))) (let ((.def_91 (or .def_1 .def_69))) (let ((.def_92 (or .def_91 .def_90))) (let ((.def_93 (not .def_92))) (let ((.def_94 (and A23 .def_9))) (let ((.def_95 (not .def_94))) (let ((.def_96 (or .def_4 A1))) (let ((.def_97 (not .def_96))) (let ((.def_98 (and .def_97 .def_95))) (let ((.def_99 (or .def_98 .def_93))) (let ((.def_100 (and .def_99 .def_89))) (let ((.def_101 (and .def_100 .def_77))) (let ((.def_102 (or .def_101 .def_52))) .def_102))))))))))))))))))))))))))))))))))))))))))))))))))))))))))))))))))))))))))))))))))))))))))))))))))))))))
(check-sat)
